100
14 7
22 32
16 48
25 59
29 70
3 73
11 94
14 76
0 80
17 97
4 28
29 34
17 43
5 29
24 4
11 33
25 18
8 5
5 11
14 15
9 86
22 29
7 92
14 16
5 47
15 11
27 42
25 56
5 86
2 30
23 42
22 6
1 81
14 83
18 28
16 78
29 39
1 99
7 16
13 55
8 33
15 91
19 67
4 12
24 85
9 96
12 10
21 43
16 66
26 35
26 77
16 65
6 25
24 0
25 83
26 9
20 26
23 43
27 0
27 99
26 2
2 68
21 50
28 55
12 90
27 67
22 8
26 35
15 48
11 80
19 43
29 0
25 90
12 14
4 55
7 79
29 62
22 21
8 10
20 33
0 70
29 67
23 32
12 65
15 90
3 15
15 34
6 54
9 63
18 70
11 83
5 27
10 0
1 9
2 28
8 63
23 42
16 29
24 38
8 58
